decision_x1=[0,2];
decision_x2=[0,2];
decision_x3=[0,2];
decision_x4=[0,2];
decision_x5=[0,2];
decision_x6=[0,2];
decision_x7=[0,2];
decision_x8=[0,2];
decision_x9=[0,2];
decision_x10=[0,2];
decision_x11=[0,2];
decision_x12=[0,2];
random_y1=[0,2];
random_y2=[0,2];
random_y3=[0,2];
random_y4=[0,2];
random_y5=[0,2];
random_y6=[0,2];
random_y7=[0,2];
random_y8=[0,2];
random_y9=[0,2];
random_y10=[0,2];
random_y11=[0,2];
random_y12=[0,2];
constraint_x3_x1=[
0,0,24|
0,1,69|
0,2,35|
1,0,74|
1,1,44|
1,2,14|
2,0,69|
2,1,1.2|
2,2,56|
];
constraint_x3_x2=[
0,0,55|
0,1,81|
0,2,20|
1,0,50|
1,1,31|
1,2,0.61|
2,0,88|
2,1,2.7|
2,2,69|
];
constraint_x4_x1=[
0,0,27|
0,1,32|
0,2,94|
1,0,4.6|
1,1,92|
1,2,37|
2,0,9.2|
2,1,75|
2,2,91|
];
constraint_x4_x2=[
0,0,5|
0,1,78|
0,2,80|
1,0,57|
1,1,69|
1,2,66|
2,0,97|
2,1,68|
2,2,35|
];
constraint_x4_x3=[
0,0,89|
0,1,59|
0,2,89|
1,0,10|
1,1,24|
1,2,36|
2,0,80|
2,1,53|
2,2,73|
];
constraint_x5_x4=[
0,0,93|
0,1,80|
0,2,34|
1,0,56|
1,1,95|
1,2,2.1|
2,0,48|
2,1,41|
2,2,73|
];
constraint_x6_x2=[
0,0,85|
0,1,6.1|
0,2,80|
1,0,11|
1,1,73|
1,2,55|
2,0,73|
2,1,11|
2,2,43|
];
constraint_x6_x4=[
0,0,65|
0,1,66|
0,2,42|
1,0,11|
1,1,29|
1,2,80|
2,0,62|
2,1,0.44|
2,2,20|
];
constraint_x6_x5=[
0,0,0.07|
0,1,37|
0,2,28|
1,0,24|
1,1,86|
1,2,86|
2,0,81|
2,1,94|
2,2,17|
];
constraint_x7_x1=[
0,0,37|
0,1,34|
0,2,91|
1,0,74|
1,1,91|
1,2,97|
2,0,61|
2,1,78|
2,2,59|
];
constraint_x7_x6=[
0,0,16|
0,1,89|
0,2,24|
1,0,79|
1,1,77|
1,2,3.7|
2,0,37|
2,1,2.5|
2,2,5.4|
];
constraint_x8_x4=[
0,0,32|
0,1,96|
0,2,69|
1,0,40|
1,1,0.04|
1,2,4.3|
2,0,55|
2,1,90|
2,2,78|
];
constraint_x8_x5=[
0,0,54|
0,1,88|
0,2,30|
1,0,31|
1,1,82|
1,2,38|
2,0,5.6|
2,1,64|
2,2,92|
];
constraint_x8_x6=[
0,0,63|
0,1,24|
0,2,76|
1,0,60|
1,1,89|
1,2,39|
2,0,1|
2,1,12|
2,2,2.3|
];
constraint_x8_x7=[
0,0,76|
0,1,5.7|
0,2,50|
1,0,84|
1,1,4.4|
1,2,40|
2,0,42|
2,1,52|
2,2,89|
];
constraint_x9_x3=[
0,0,90|
0,1,80|
0,2,13|
1,0,15|
1,1,1.2|
1,2,50|
2,0,50|
2,1,57|
2,2,61|
];
constraint_x9_x6=[
0,0,18|
0,1,48|
0,2,24|
1,0,17|
1,1,62|
1,2,14|
2,0,13|
2,1,41|
2,2,83|
];
constraint_x9_x7=[
0,0,54|
0,1,9.9|
0,2,40|
1,0,74|
1,1,21|
1,2,12|
2,0,90|
2,1,49|
2,2,26|
];
constraint_x9_x8=[
0,0,2.7|
0,1,9.9|
0,2,94|
1,0,38|
1,1,22|
1,2,14|
2,0,58|
2,1,20|
2,2,0.6|
];
constraint_x10_x1=[
0,0,83|
0,1,25|
0,2,73|
1,0,68|
1,1,76|
1,2,13|
2,0,42|
2,1,51|
2,2,95|
];
constraint_x10_x3=[
0,0,86|
0,1,54|
0,2,3.4|
1,0,16|
1,1,79|
1,2,82|
2,0,6.9|
2,1,98|
2,2,58|
];
constraint_x10_x8=[
0,0,74|
0,1,90|
0,2,15|
1,0,92|
1,1,40|
1,2,58|
2,0,88|
2,1,70|
2,2,53|
];
constraint_x10_x9=[
0,0,22|
0,1,6.5|
0,2,34|
1,0,4.8|
1,1,86|
1,2,56|
2,0,3|
2,1,39|
2,2,37|
];
constraint_x11_x3=[
0,0,64|
0,1,5.2|
0,2,65|
1,0,45|
1,1,61|
1,2,85|
2,0,74|
2,1,85|
2,2,43|
];
constraint_x11_x5=[
0,0,83|
0,1,49|
0,2,91|
1,0,58|
1,1,50|
1,2,60|
2,0,67|
2,1,10|
2,2,34|
];
constraint_x11_x6=[
0,0,52|
0,1,22|
0,2,74|
1,0,43|
1,1,79|
1,2,85|
2,0,11|
2,1,45|
2,2,39|
];
constraint_x11_x9=[
0,0,41|
0,1,53|
0,2,84|
1,0,76|
1,1,0.59|
1,2,9.2|
2,0,42|
2,1,42|
2,2,79|
];
constraint_x12_x2=[
0,0,48|
0,1,65|
0,2,81|
1,0,51|
1,1,24|
1,2,86|
2,0,60|
2,1,7|
2,2,14|
];
constraint_x12_x4=[
0,0,55|
0,1,1.4|
0,2,82|
1,0,98|
1,1,83|
1,2,30|
2,0,36|
2,1,45|
2,2,90|
];
constraint_x12_x5=[
0,0,49|
0,1,52|
0,2,5.5|
1,0,8.9|
1,1,88|
1,2,0.96|
2,0,20|
2,1,30|
2,2,3.4|
];
constraint_x12_x7=[
0,0,47|
0,1,87|
0,2,69|
1,0,40|
1,1,35|
1,2,69|
2,0,51|
2,1,31|
2,2,0.38|
];
constraint_x12_x8=[
0,0,61|
0,1,97|
0,2,36|
1,0,44|
1,1,39|
1,2,74|
2,0,57|
2,1,76|
2,2,84|
];
constraint_x12_x9=[
0,0,13|
0,1,18|
0,2,21|
1,0,92|
1,1,66|
1,2,56|
2,0,28|
2,1,31|
2,2,5|
];
constraint_x1_y1=[
0,0,94|
0,1,97|
0,2,43|
1,0,1.5|
1,1,67|
1,2,50|
2,0,13|
2,1,69|
2,2,30|
];
constraint_x2_y2=[
0,0,53|
0,1,23|
0,2,34|
1,0,96|
1,1,98|
1,2,86|
2,0,80|
2,1,58|
2,2,79|
];
constraint_x3_y3=[
0,0,21|
0,1,5|
0,2,5.4|
1,0,88|
1,1,25|
1,2,50|
2,0,78|
2,1,83|
2,2,15|
];
constraint_x4_y4=[
0,0,79|
0,1,63|
0,2,75|
1,0,20|
1,1,2.5|
1,2,67|
2,0,97|
2,1,51|
2,2,57|
];
constraint_x5_y5=[
0,0,19|
0,1,9.2|
0,2,95|
1,0,1.9|
1,1,54|
1,2,49|
2,0,34|
2,1,73|
2,2,6.8|
];
constraint_x6_y6=[
0,0,44|
0,1,93|
0,2,23|
1,0,76|
1,1,43|
1,2,64|
2,0,7.7|
2,1,37|
2,2,63|
];
constraint_x7_y7=[
0,0,92|
0,1,98|
0,2,90|
1,0,99|
1,1,26|
1,2,49|
2,0,38|
2,1,15|
2,2,4.4|
];
constraint_x8_y8=[
0,0,48|
0,1,89|
0,2,7.9|
1,0,5|
1,1,52|
1,2,2.1|
2,0,84|
2,1,97|
2,2,18|
];
constraint_x9_y9=[
0,0,17|
0,1,48|
0,2,20|
1,0,19|
1,1,85|
1,2,4.9|
2,0,70|
2,1,40|
2,2,60|
];
constraint_x10_y10=[
0,0,31|
0,1,18|
0,2,12|
1,0,53|
1,1,64|
1,2,93|
2,0,62|
2,1,71|
2,2,64|
];
constraint_x11_y11=[
0,0,18|
0,1,28|
0,2,18|
1,0,69|
1,1,11|
1,2,76|
2,0,98|
2,1,50|
2,2,94|
];
constraint_x12_y12=[
0,0,66|
0,1,75|
0,2,35|
1,0,6|
1,1,16|
1,2,45|
2,0,80|
2,1,91|
2,2,8.2|
];
initial_distribution_y1=[0.36,0.48,0.16];
initial_distribution_y2=[0.19,0.56,0.26];
initial_distribution_y3=[0.37,0.43,0.2];
initial_distribution_y4=[0.37,0.35,0.28];
initial_distribution_y5=[0.24,0.36,0.4];
initial_distribution_y6=[0.027,0.8,0.17];
initial_distribution_y7=[0.36,0.54,0.096];
initial_distribution_y8=[0.06,0.47,0.47];
initial_distribution_y9=[0.22,0.52,0.25];
initial_distribution_y10=[0.19,0.36,0.45];
initial_distribution_y11=[0.42,0.14,0.44];
initial_distribution_y12=[0.16,0.32,0.53];
transition_y1=[
0.55,0.39,0.057|
0.16,0.36,0.48|
0.24,0.5,0.26|
];
transition_y2=[
0.53,0.43,0.044|
0.35,0.13,0.52|
0.47,0.095,0.44|
];
transition_y3=[
0.34,0.24,0.42|
0.53,0.33,0.14|
0.18,0.43,0.39|
];
transition_y4=[
0.17,0.42,0.41|
0.18,0.52,0.3|
0.4,0.22,0.38|
];
transition_y5=[
0.076,0.37,0.55|
0.37,0.016,0.61|
0.27,0.46,0.27|
];
transition_y6=[
0.067,0.55,0.38|
0.82,0.03,0.15|
0.65,0.17,0.18|
];
transition_y7=[
0.51,0.29,0.2|
0.65,0.28,0.063|
0.54,0.14,0.32|
];
transition_y8=[
0.1,0.44,0.46|
0.52,0.41,0.061|
0.44,0.46,0.097|
];
transition_y9=[
0.23,0.62,0.16|
0.36,0.34,0.29|
0.3,0.62,0.08|
];
transition_y10=[
0.31,0.35,0.34|
0.12,0.73,0.15|
0.6,0.38,0.024|
];
transition_y11=[
0.46,0.36,0.18|
0.48,0.46,0.06|
0.35,0.37,0.28|
];
transition_y12=[
0.43,0.35,0.22|
0.36,0.48,0.16|
0.45,0.031,0.52|
];
